30
2 0 4
2 1 4
3 1 5
5 0 6
5 3 12
5 4 4
6 5 8
7 0 10
7 1 12
7 2 13
8 0 12
8 2 1
8 3 4
8 4 7
8 5 12
9 0 7
9 1 2
9 2 6
9 3 9
9 6 1
9 7 6
10 0 2
10 2 2
10 3 1
10 4 1
10 9 12
11 1 11
11 3 3
11 4 2
11 5 1
11 8 9
11 9 6
11 10 6
12 1 6
12 3 8
12 4 12
12 7 9
12 8 12
12 9 8
12 11 12
13 0 9
13 1 6
13 3 11
13 4 3
13 7 11
13 11 5
13 12 1
14 0 7
14 1 10
14 2 4
14 3 12
14 4 7
14 7 8
14 8 7
14 9 1
14 10 6
14 11 6
14 12 1
14 13 3
15 3 6
15 5 13
15 6 12
15 7 7
15 9 2
15 12 6
15 14 1
16 0 12
16 1 12
16 2 3
16 3 12
16 7 11
16 8 1
16 9 13
16 12 12
16 13 11
16 14 11
16 15 3
17 1 5
17 3 6
17 4 1
17 5 5
17 6 1
17 13 13
18 0 10
18 1 3
18 3 2
18 4 4
18 7 6
18 8 2
18 9 1
18 10 11
18 12 13
18 13 4
18 16 4
19 1 11
19 2 11
19 8 2
19 9 2
19 13 1
19 17 3
19 18 4
20 0 4
20 2 1
20 5 1
20 7 2
20 9 6
20 11 13
20 13 9
20 16 1
20 17 9
20 18 9
20 19 10
21 0 1
21 1 10
21 2 8
21 3 3
21 4 5
21 5 5
21 6 9
21 9 11
21 10 7
21 11 2
21 12 1
21 14 13
21 16 4
21 19 3
22 0 12
22 1 2
22 2 9
22 3 13
22 8 11
22 9 9
22 14 12
22 19 12
23 0 7
23 2 12
23 3 4
23 7 1
23 9 1
23 10 5
23 11 12
23 15 11
23 16 5
23 17 7
23 18 7
24 1 11
24 4 5
24 8 10
24 9 4
24 13 12
24 14 3
24 17 9
24 18 10
24 19 9
24 21 8
24 22 8
24 23 8
25 1 1
25 4 10
25 7 10
25 10 4
25 11 9
25 13 8
25 15 2
25 16 5
25 17 8
25 20 7
26 0 4
26 2 9
26 5 4
26 7 8
26 9 11
26 10 4
26 11 12
26 13 9
26 17 10
26 18 7
26 19 9
26 23 11
27 1 13
27 2 2
27 3 4
27 4 8
27 8 2
27 9 4
27 11 12
27 12 1
27 14 2
27 16 2
27 17 11
27 18 2
27 25 3
27 26 4
28 0 13
28 1 6
28 4 3
28 5 13
28 6 1
28 7 3
28 8 4
28 12 6
28 13 4
28 18 12
28 24 6
29 1 12
29 2 13
29 3 6
29 4 6
29 5 2
29 7 10
29 13 2
29 18 3
29 19 5
29 21 11
29 23 11
29 27 12
